out/bwp_5_12_1_lp.out
24
0 0    3 5
1 6    4 11
1 12    4 17
0 18    3 23
4 1    4 2
-0 6    0 7
-0 8    0 9
-0 10    0 11
4 18    4 19
4 20    4 21
4 -0    4 0
-0 12    0 12
