out/bwp_5_12_1_lp.log
Tried aggregator 2 times.
MIP Presolve eliminated 18 rows and 43 columns.
MIP Presolve modified 276 coefficients.
Aggregator did 288 substitutions.
Reduced MIP has 1396 rows, 1255 columns, and 3442 nonzeros.
Reduced MIP has 766 binaries, 21 generals, 0 SOSs, and 264 indicators.
Presolve time = 0.01 sec. (4.07 ticks)
Probing fixed 84 vars, tightened 434 bounds.
Probing time = 0.08 sec. (25.89 ticks)
Tried aggregator 3 times.
MIP Presolve eliminated 130 rows and 102 columns.
MIP Presolve modified 636 coefficients.
Aggregator did 436 substitutions.
Reduced MIP has 830 rows, 717 columns, and 2443 nonzeros.
Reduced MIP has 561 binaries, 124 generals, 0 SOSs, and 208 indicators.
Presolve time = 0.02 sec. (6.42 ticks)
Probing time = 0.01 sec. (5.77 ticks)
Tried aggregator 1 time.
Reduced MIP has 830 rows, 717 columns, and 2443 nonzeros.
Reduced MIP has 561 binaries, 124 generals, 0 SOSs, and 208 indicators.
Presolve time = 0.00 sec. (1.29 ticks)
Probing time = 0.01 sec. (2.29 ticks)
Clique table members: 2496.
MIP emphasis: balance optimality and feasibility.
MIP search method: dynamic search.
Parallel mode: deterministic, using up to 4 threads.
Root relaxation solution time = 0.00 sec. (2.96 ticks)

        Nodes                                         Cuts/
   Node  Left     Objective  IInf  Best Integer    Best Bound    ItCnt     Gap

      0     0       24.0000   242                     24.0000      255         
      0     0       24.0000    50                    Cuts: 12      265         
      0     0       24.0000   113                    Cuts: 55      308         
*     0+    0                           38.0000       24.0000      352   36.84%
      0     0       24.0000    31       38.0000      Cuts: 38      352   36.84%
      0     0       24.0000    40       38.0000       Cuts: 8      363   36.84%
*     0+    0                           34.0000       24.0000      363   29.41%
*     0+    0                           28.0000       24.0000      363   14.29%
*     0+    0                           27.0000       24.0000      363   11.11%

Repeating presolve.
Tried aggregator 2 times.
MIP Presolve eliminated 273 rows and 223 columns.
MIP Presolve modified 417 coefficients.
Aggregator did 24 substitutions.
Reduced MIP has 556 rows, 470 columns, and 1677 nonzeros.
Reduced MIP has 338 binaries, 104 generals, 0 SOSs, and 185 indicators.
Presolve time = 0.01 sec. (3.18 ticks)
Probing fixed 0 vars, tightened 51 bounds.
Probing time = 0.01 sec. (3.04 ticks)
Tried aggregator 2 times.
MIP Presolve eliminated 23 rows and 0 columns.
MIP Presolve modified 166 coefficients.
Aggregator did 7 substitutions.
Reduced MIP has 526 rows, 463 columns, and 1617 nonzeros.
Reduced MIP has 338 binaries, 100 generals, 0 SOSs, and 185 indicators.
Presolve time = 0.00 sec. (1.28 ticks)
Probing time = 0.01 sec. (2.44 ticks)
Tried aggregator 1 time.
Reduced MIP has 526 rows, 463 columns, and 1617 nonzeros.
Reduced MIP has 338 binaries, 100 generals, 0 SOSs, and 185 indicators.
Presolve time = 0.00 sec. (0.86 ticks)
Represolve time = 0.04 sec. (12.67 ticks)
Probing time = 0.01 sec. (2.12 ticks)
Clique table members: 1306.
MIP emphasis: balance optimality and feasibility.
MIP search method: dynamic search.
Parallel mode: deterministic, using up to 4 threads.
Root relaxation solution time = 0.00 sec. (2.32 ticks)

        Nodes                                         Cuts/
   Node  Left     Objective  IInf  Best Integer    Best Bound    ItCnt     Gap

*     0+    0                           27.0000       24.0000      554   11.11%
      0     0       24.0000   230       27.0000       24.0000      554   11.11%
      0     0       24.0000    57       27.0000      Cuts: 15      570   11.11%
      0     0       24.0000    13       27.0000      Cuts: 35      598   11.11%
      0     0       24.0000    52       27.0000      Cuts: 19      625   11.11%
      0     0       24.0000    25       27.0000      Cuts: 41      641   11.11%
      0     0       24.0000    33       27.0000       Cuts: 5      647   11.11%
*     0+    0                           24.0000       24.0000      647    0.00%
      0     0        cutoff             24.0000       24.0000      647    0.00%
Elapsed time = 0.61 sec. (194.25 ticks, tree = 0.00 MB, solutions = 5)

Clique cuts applied:  32
Cover cuts applied:  18
Implied bound cuts applied:  28
Flow cuts applied:  1
Mixed integer rounding cuts applied:  1
Zero-half cuts applied:  14
Gomory fractional cuts applied:  11

Root node processing (before b&c):
  Real time             =    0.61 sec. (194.32 ticks)
Parallel b&c, 4 threads:
  Real time             =    0.00 sec. (0.00 ticks)
  Sync time (average)   =    0.00 sec.
  Wait time (average)   =    0.00 sec.
                          ------------
Total (root+branch&cut) =    0.61 sec. (194.32 ticks)
